243/surrogate_problem/sol/surrogate2_27.sol
# Solution for model problem_
# Objective value = 2.4299620214973445e+05
x(0_0) 0
x(0_1) 0
x(0_2) 1
x(0_3) 0
x(0_4) 0
x(0_5) 0
x(0_6) 0
x(0_7) 0
x(0_8) 0
x(0_9) 0
x(0_10) 0
x(0_11) 0
x(1_12) 0
x(1_13) 0
x(1_14) 0
x(1_15) 0
x(1_16) 0
x(1_17) 0
x(1_18) 0
x(1_19) 1
x(1_20) 0
x(1_21) 0
x(1_22) 0
x(2_23) 0
x(2_24) 0
x(2_25) 0
x(2_26) 0
x(2_27) 0
x(2_28) 0
x(2_29) 0
x(2_30) 0
x(2_31) 0
x(2_32) 1
x(2_33) 0
x(2_34) 0
x(2_35) 0
x(3_36) 0
x(3_37) 0
x(3_38) 0
x(3_39) 0
x(3_40) 1
x(3_41) 0
x(3_42) 0
x(3_43) 0
x(3_44) 0
x(3_45) 0
x(4_46) 0
x(4_47) 0
x(4_48) 0
x(4_49) 0
x(4_50) 0
x(4_51) 0
x(4_52) 0
x(4_53) 0
x(4_54) 1
x(4_55) 0
x(4_56) 0
x(4_57) 0
x(4_58) 0
x(4_59) 0
x(4_60) 0
x(4_61) 0
x(5_62) 0
x(5_63) 0
x(5_64) 0
x(5_65) 0
x(5_66) 0
x(5_67) 0
x(5_68) 0
x(5_69) 0
x(5_70) 0
x(5_71) 0
x(5_72) 0
x(5_73) 0
x(5_74) 0
x(5_75) 1
x(5_76) 0
x(6_77) 0
x(6_78) 1
x(6_79) 0
x(6_80) 0
x(6_81) 0
x(6_82) 0
x(6_83) 0
x(6_84) 0
x(6_85) 0
x(6_86) 0
x(6_87) 0
x(7_88) 0
x(7_89) 0
x(7_90) 0
x(7_91) 0
x(7_92) 0
x(7_93) 0
x(7_94) 0
x(7_95) 0
x(7_96) 0
x(7_97) 0
x(7_98) 0
x(7_99) 1
x(7_100) 0
x(8_101) 0
x(8_102) 0
x(8_103) 0
x(8_104) 0
x(8_105) 0
x(8_106) 0
x(8_107) 0
x(8_108) 0
x(8_109) 0
x(8_110) 0
x(8_111) 0
x(8_112) 1
x(9_113) 0
x(9_114) 0
x(9_115) 0
x(9_116) 0
x(9_117) 0
x(9_118) 0
x(9_119) 0
x(9_120) 0
x(9_121) 1
x(9_122) 0
x(9_123) 0
x(9_124) 0
x(9_125) 0
x(9_126) 0
x(9_127) 0
x(9_128) 0
x(10_129) 0
x(10_130) 0
x(10_131) 0
x(10_132) 0
x(10_133) 0
x(10_134) 0
x(10_135) 0
x(10_136) 1
x(10_137) 0
x(10_138) 0
x(10_139) 0
x(11_140) 0
x(11_141) 0
x(11_142) 0
x(11_143) 0
x(11_144) 0
x(11_145) 1
x(11_146) 0
x(11_147) 0
x(11_148) 0
x(11_149) 0
x(11_150) 0
x(11_151) 0
x(12_152) 0
x(12_153) 0
x(12_154) 1
x(12_155) 0
x(12_156) 0
x(12_157) 0
x(12_158) 0
x(12_159) 0
x(12_160) 0
x(12_161) 0
x(12_162) 0
x(12_163) 0
x(12_164) 0
x(12_165) 0
x(13_166) 1
x(13_167) 0
x(13_168) 0
x(13_169) 0
x(13_170) 0
x(13_171) 0
x(13_172) 0
x(13_173) 0
x(13_174) 0
x(13_175) 0
x(14_176) 0
x(14_177) 0
x(14_178) 0
x(14_179) 0
x(14_180) 0
x(14_181) 0
x(14_182) 0
x(14_183) 0
x(14_184) 0
x(14_185) 0
x(14_186) 0
x(14_187) 1
x(14_188) 0
x(14_189) 0
x(14_190) 0
x(14_191) 0
x(14_192) 0
x(14_193) 0
x(15_194) 0
x(15_195) 0
x(15_196) 0
x(15_197) 0
x(15_198) 0
x(15_199) 0
x(15_200) 0
x(15_201) 0
x(15_202) 0
x(15_203) 0
x(15_204) 0
x(15_205) 0
x(15_206) 1
x(15_207) 0
x(16_208) 0
x(16_209) 0
x(16_210) 0
x(16_211) 0
x(16_212) 0
x(16_213) 0
x(16_214) 0
x(16_215) 0
x(16_216) 0
x(16_217) 0
x(16_218) 0
x(16_219) 0
x(16_220) 0
x(16_221) 0
x(16_222) 0
x(16_223) 1
x(16_224) 0
x(17_225) 0
x(17_226) 0
x(17_227) 0
x(17_228) 0
x(17_229) 0
x(17_230) 0
x(17_231) 1
x(17_232) 0
x(17_233) 0
x(17_234) 0
x(17_235) 0
x(17_236) 0
x(17_237) 0
x(17_238) 0
x(17_239) 0
x(17_240) 0
x(17_241) 0
x(18_242) 1
x(18_243) 0
x(18_244) 0
x(18_245) 0
x(18_246) 0
x(18_247) 0
x(18_248) 0
x(18_249) 0
x(18_250) 0
x(18_251) 0
x(18_252) 0
x(19_253) 0
x(19_254) 0
x(19_255) 0
x(19_256) 0
x(19_257) 1
x(19_258) 0
x(19_259) 0
x(19_260) 0
x(19_261) 0
x(19_262) 0
x(20_263) 0
x(20_264) 0
x(20_265) 0
x(20_266) 0
x(20_267) 1
x(20_268) 0
x(20_269) 0
x(20_270) 0
x(20_271) 0
x(20_272) 0
x(20_273) 0
x(20_274) 0
x(20_275) 0
x(20_276) 0
x(21_277) 0
x(21_278) 0
x(21_279) 0
x(21_280) 0
x(21_281) 0
x(21_282) 0
x(21_283) 0
x(21_284) 0
x(21_285) 0
x(21_286) 0
x(21_287) 1
x(22_288) 0
x(22_289) 0
x(22_290) 1
x(22_291) 0
x(22_292) 0
x(22_293) 0
x(22_294) 0
x(22_295) 0
x(22_296) 0
x(22_297) 0
x(22_298) 0
x(22_299) 0
x(22_300) 0
x(22_301) 0
x(22_302) 0
x(22_303) 0
x(22_304) 0
x(22_305) 0
x(22_306) 0
x(23_307) 0
x(23_308) 0
x(23_309) 0
x(23_310) 0
x(23_311) 0
x(23_312) 1
x(23_313) 0
x(23_314) 0
x(23_315) 0
x(23_316) 0
x(23_317) 0
x(23_318) 0
x(23_319) 0
x(24_320) 1
x(24_321) 0
x(24_322) 0
x(24_323) 0
x(24_324) 0
x(24_325) 0
x(24_326) 0
x(24_327) 0
x(24_328) 0
x(24_329) 0
x(24_330) 0
x(24_331) 0
x(24_332) 0
x(24_333) 0
x(24_334) 0
x(24_335) 0
x(24_336) 0
x(24_337) 0
x(24_338) 0
x(24_339) 0
x(25_340) 0
x(25_341) 0
x(25_342) 0
x(25_343) 1
x(25_344) 0
x(25_345) 0
x(25_346) 0
x(25_347) 0
x(25_348) 0
x(25_349) 0
x(25_350) 0
x(25_351) 0
x(25_352) 0
x(25_353) 0
x(26_354) 0
x(26_355) 0
x(26_356) 0
x(26_357) 1
x(26_358) 0
x(26_359) 0
x(26_360) 0
x(26_361) 0
x(26_362) 0
x(26_363) 0
x(27_364) 0
x(27_365) 0
x(27_366) 0
x(27_367) 0
x(27_368) 0
x(27_369) 0
x(27_370) 0
x(27_371) 0
x(27_372) 0
x(27_373) 0
x(27_374) 0
x(27_375) 0
x(27_376) 0
x(27_377) 0
x(27_378) 0
x(27_379) 1
x(27_380) 0
x(28_381) 0
x(28_382) 0
x(28_383) 0
x(28_384) 0
x(28_385) 0
x(28_386) 0
x(28_387) 0
x(28_388) 0
x(28_389) 0
x(28_390) 0
x(28_391) 0
x(28_392) 0
x(28_393) 0
x(28_394) 0
x(28_395) 1
x(28_396) 0
x(28_397) 0
x(28_398) 0
x(28_399) 0
x(28_400) 0
x(29_401) 0
x(29_402) 1
x(29_403) 0
x(29_404) 0
x(29_405) 0
x(29_406) 0
x(29_407) 0
x(29_408) 0
x(29_409) 0
x(29_410) 0
x(29_411) 0
x(29_412) 0
x(30_413) 0
x(30_414) 0
x(30_415) 0
x(30_416) 0
x(30_417) 0
x(30_418) 0
x(30_419) 0
x(30_420) 0
x(30_421) 1
x(30_422) 0
x(30_423) 0
x(31_424) 0
x(31_425) 0
x(31_426) 0
x(31_427) 0
x(31_428) 0
x(31_429) 0
x(31_430) 0
x(31_431) 0
x(31_432) 0
x(31_433) 0
x(31_434) 0
x(31_435) 0
x(31_436) 1
x(31_437) 0
x(31_438) 0
x(31_439) 0
x(31_440) 0
x(32_441) 0
x(32_442) 0
x(32_443) 0
x(32_444) 0
x(32_445) 0
x(32_446) 0
x(32_447) 0
x(32_448) 0
x(32_449) 0
x(32_450) 1
x(32_451) 0
x(32_452) 0
x(32_453) 0
x(32_454) 0
x(32_455) 0
x(33_456) 0
x(33_457) 0
x(33_458) 0
x(33_459) 0
x(33_460) 0
x(33_461) 0
x(33_462) 0
x(33_463) 1
x(33_464) 0
x(33_465) 0
x(33_466) 0
x(33_467) 0
x(33_468) 0
x(33_469) 0
x(33_470) 0
x(33_471) 0
x(34_472) 0
x(34_473) 0
x(34_474) 0
x(34_475) 0
x(34_476) 1
x(34_477) 0
x(34_478) 0
x(34_479) 0
x(34_480) 0
x(34_481) 0
x(34_482) 0
x(34_483) 0
x(34_484) 0
x(34_485) 0
x(34_486) 0
x(34_487) 0
x(35_488) 0
x(35_489) 1
x(35_490) 0
x(35_491) 0
x(35_492) 0
x(35_493) 0
x(35_494) 0
x(35_495) 0
x(35_496) 0
x(35_497) 0
x(36_498) 0
x(36_499) 0
x(36_500) 0
x(36_501) 0
x(36_502) 0
x(36_503) 0
x(36_504) 0
x(36_505) 0
x(36_506) 0
x(36_507) 0
x(36_508) 0
x(36_509) 0
x(36_510) 0
x(36_511) 0
x(36_512) 0
x(36_513) 1
x(36_514) 0
x(37_515) 0
x(37_516) 0
x(37_517) 0
x(37_518) 0
x(37_519) 0
x(37_520) 0
x(37_521) 0
x(37_522) 0
x(37_523) 0
x(37_524) 0
x(37_525) 0
x(37_526) 1
x(37_527) 0
x(37_528) 0
x(37_529) 0
x(37_530) 0
x(37_531) 0
x(38_532) 0
x(38_533) 0
x(38_534) 0
x(38_535) 0
x(38_536) 0
x(38_537) 0
x(38_538) 0
x(38_539) 1
x(38_540) 0
x(38_541) 0
x(38_542) 0
x(38_543) 0
x(38_544) 0
x(38_545) 0
x(38_546) 0
x(38_547) 0
x(39_548) 0
x(39_549) 0
x(39_550) 1
x(39_551) 0
x(39_552) 0
x(39_553) 0
x(39_554) 0
x(39_555) 0
x(39_556) 0
x(39_557) 0
x(39_558) 0
x(40_559) 0
x(40_560) 0
x(40_561) 0
x(40_562) 0
x(40_563) 0
x(40_564) 0
x(40_565) 0
x(40_566) 0
x(40_567) 0
x(40_568) 0
x(40_569) 0
x(40_570) 1
x(40_571) 0
x(40_572) 0
x(40_573) 0
x(41_574) 0
x(41_575) 0
x(41_576) 1
x(41_577) 0
x(41_578) 0
x(41_579) 0
x(41_580) 0
x(41_581) 0
x(41_582) 0
x(41_583) 0
x(41_584) 0
x(41_585) 0
x(41_586) 0
x(42_587) 0
x(42_588) 0
x(42_589) 0
x(42_590) 0
x(42_591) 0
x(42_592) 0
x(42_593) 0
x(42_594) 0
x(42_595) 0
x(42_596) 0
x(42_597) 0
x(42_598) 0
x(42_599) 0
x(42_600) 0
x(42_601) 0
x(42_602) 0
x(42_603) 0
x(42_604) 0
x(42_605) 1
x(43_606) 0
x(43_607) 0
x(43_608) 0
x(43_609) 0
x(43_610) 0
x(43_611) 0
x(43_612) 0
x(43_613) 0
x(43_614) 0
x(43_615) 0
x(43_616) 0
x(43_617) 0
x(43_618) 0
x(43_619) 0
x(43_620) 0
x(43_621) 0
x(43_622) 0
x(43_623) 0
x(43_624) 1
x(44_625) 0
x(44_626) 0
x(44_627) 0
x(44_628) 0
x(44_629) 0
x(44_630) 0
x(44_631) 0
x(44_632) 0
x(44_633) 0
x(44_634) 0
x(44_635) 0
x(44_636) 0
x(44_637) 0
x(44_638) 1
x(44_639) 0
x(44_640) 0
x(45_641) 0
x(45_642) 0
x(45_643) 0
x(45_644) 0
x(45_645) 0
x(45_646) 0
x(45_647) 0
x(45_648) 0
x(45_649) 0
x(45_650) 0
x(45_651) 0
x(45_652) 0
x(45_653) 0
x(45_654) 1
x(45_655) 0
x(46_656) 0
x(46_657) 0
x(46_658) 1
x(46_659) 0
x(46_660) 0
x(46_661) 0
x(46_662) 0
x(46_663) 0
x(46_664) 0
x(46_665) 0
x(46_666) 0
x(46_667) 0
x(46_668) 0
x(46_669) 0
x(46_670) 0
x(46_671) 0
x(46_672) 0
x(46_673) 0
x(46_674) 0
x(46_675) 0
x(47_676) 1
x(47_677) 0
x(47_678) 0
x(47_679) 0
x(47_680) 0
x(47_681) 0
x(47_682) 0
x(47_683) 0
x(47_684) 0
x(47_685) 0
x(47_686) 0
x(48_687) 0
x(48_688) 0
x(48_689) 0
x(48_690) 0
x(48_691) 0
x(48_692) 0
x(48_693) 0
x(48_694) 0
x(48_695) 1
x(48_696) 0
x(48_697) 0
x(48_698) 0
x(48_699) 0
x(48_700) 0
x(49_701) 0
x(49_702) 0
x(49_703) 0
x(49_704) 0
x(49_705) 0
x(49_706) 0
x(49_707) 0
x(49_708) 0
x(49_709) 1
x(49_710) 0
x(49_711) 0
x(49_712) 0
x(49_713) 0
x(50_714) 1
x(50_715) 0
x(50_716) 0
x(50_717) 0
x(50_718) 0
x(50_719) 0
x(50_720) 0
x(50_721) 0
x(50_722) 0
x(50_723) 0
x(50_724) 0
x(50_725) 0
x(50_726) 0
x(50_727) 0
x(50_728) 0
x(50_729) 0
x(51_730) 0
x(51_731) 0
x(51_732) 0
x(51_733) 0
x(51_734) 0
x(51_735) 0
x(51_736) 0
x(51_737) 0
x(51_738) 0
x(51_739) 0
x(51_740) 0
x(51_741) 0
x(51_742) 0
x(51_743) 0
x(51_744) 0
x(51_745) 0
x(51_746) 1
x(51_747) 0
x(52_748) 0
x(52_749) 0
x(52_750) 0
x(52_751) 0
x(52_752) 0
x(52_753) 0
x(52_754) 0
x(52_755) 0
x(52_756) 1
x(52_757) 0
x(52_758) 0
x(52_759) 0
x(53_760) 0
x(53_761) 0
x(53_762) 0
x(53_763) 0
x(53_764) 0
x(53_765) 0
x(53_766) 0
x(53_767) 0
x(53_768) 0
x(53_769) 0
x(53_770) 0
x(53_771) 1
x(53_772) 0
x(53_773) 0
x(53_774) 0
x(53_775) 0
x(54_776) 1
x(54_777) 0
x(54_778) 0
x(54_779) 0
x(54_780) 0
x(54_781) 0
x(54_782) 0
x(54_783) 0
x(54_784) 0
x(54_785) 0
x(54_786) 0
x(55_787) 0
x(55_788) 0
x(55_789) 0
x(55_790) 0
x(55_791) 0
x(55_792) 0
x(55_793) 0
x(55_794) 0
x(55_795) 0
x(55_796) 0
x(55_797) 0
x(55_798) 1
x(56_799) 0
x(56_800) 0
x(56_801) 0
x(56_802) 0
x(56_803) 0
x(56_804) 0
x(56_805) 0
x(56_806) 1
x(56_807) 0
x(56_808) 0
x(56_809) 0
x(56_810) 0
x(56_811) 0
x(57_812) 0
x(57_813) 0
x(57_814) 0
x(57_815) 0
x(57_816) 0
x(57_817) 0
x(57_818) 1
x(57_819) 0
x(57_820) 0
x(57_821) 0
x(57_822) 0
x(57_823) 0
x(57_824) 0
x(57_825) 0
x(57_826) 0
x(57_827) 0
x(57_828) 0
x(58_829) 0
x(58_830) 0
x(58_831) 0
x(58_832) 0
x(58_833) 0
x(58_834) 0
x(58_835) 0
x(58_836) 0
x(58_837) 0
x(58_838) 0
x(58_839) 1
x(58_840) 0
x(58_841) 0
x(58_842) 0
x(59_843) 0
x(59_844) 0
x(59_845) 0
x(59_846) 1
x(59_847) 0
x(59_848) 0
x(59_849) 0
x(59_850) 0
x(59_851) 0
x(59_852) 0
x(59_853) 0
x(59_854) 0
x(59_855) 0
x(59_856) 0
x(59_857) 0
x(60_858) 1
x(60_859) 0
x(60_860) 0
x(60_861) 0
x(60_862) 0
x(60_863) 0
x(60_864) 0
x(60_865) 0
x(60_866) 0
x(60_867) 0
x(60_868) 0
x(60_869) 0
x(61_870) 0
x(61_871) 0
x(61_872) 0
x(61_873) 0
x(61_874) 0
x(61_875) 1
x(61_876) 0
x(61_877) 0
x(61_878) 0
x(61_879) 0
x(61_880) 0
x(61_881) 0
x(62_882) 0
x(62_883) 0
x(62_884) 0
x(62_885) 0
x(62_886) 0
x(62_887) 0
x(62_888) 0
x(62_889) 0
x(62_890) 0
x(62_891) 0
x(62_892) 0
x(62_893) 0
x(62_894) 0
x(62_895) 0
x(62_896) 1
x(62_897) 0
x(62_898) 0
x(62_899) 0
x(62_900) 0
x(62_901) 0
x(63_902) 0
x(63_903) 0
x(63_904) 0
x(63_905) 0
x(63_906) 0
x(63_907) 1
x(63_908) 0
x(63_909) 0
x(63_910) 0
x(63_911) 0
x(63_912) 0
x(63_913) 0
x(63_914) 0
x(63_915) 0
x(63_916) 0
x(63_917) 0
x(63_918) 0
x(63_919) 0
x(63_920) 0
x(64_921) 0
x(64_922) 0
x(64_923) 0
x(64_924) 0
x(64_925) 0
x(64_926) 0
x(64_927) 0
x(64_928) 0
x(64_929) 0
x(64_930) 0
x(64_931) 0
x(64_932) 1
x(64_933) 0
x(64_934) 0
x(65_935) 0
x(65_936) 1
x(65_937) 0
x(65_938) 0
x(65_939) 0
x(65_940) 0
x(65_941) 0
x(65_942) 0
x(65_943) 0
x(65_944) 0
x(65_945) 0
x(65_946) 0
x(65_947) 0
x(65_948) 0
x(65_949) 0
x(65_950) 0
x(65_951) 0
x(65_952) 0
x(65_953) 0
x(66_954) 0
x(66_955) 1
x(66_956) 0
x(66_957) 0
x(66_958) 0
x(66_959) 0
x(66_960) 0
x(66_961) 0
x(66_962) 0
x(66_963) 0
x(66_964) 0
x(66_965) 0
x(66_966) 0
x(66_967) 0
x(67_968) 0
x(67_969) 0
x(67_970) 0
x(67_971) 0
x(67_972) 0
x(67_973) 0
x(67_974) 0
x(67_975) 0
x(67_976) 0
x(67_977) 0
x(67_978) 1
x(67_979) 0
x(67_980) 0
x(67_981) 0
x(68_982) 0
x(68_983) 0
x(68_984) 0
x(68_985) 0
x(68_986) 0
x(68_987) 0
x(68_988) 1
x(68_989) 0
x(68_990) 0
x(68_991) 0
x(68_992) 0
x(68_993) 0
x(68_994) 0
x(68_995) 0
x(69_996) 0
x(69_997) 0
x(69_998) 0
x(69_999) 0
x(69_1000) 0
x(69_1001) 0
x(69_1002) 0
x(69_1003) 0
x(69_1004) 0
x(69_1005) 0
x(69_1006) 1
x(69_1007) 0
x(69_1008) 0
x(70_1009) 1
x(70_1010) 0
x(70_1011) 0
x(70_1012) 0
x(70_1013) 0
x(70_1014) 0
x(70_1015) 0
x(70_1016) 0
x(70_1017) 0
x(70_1018) 0
x(70_1019) 0
x(70_1020) 0
x(70_1021) 0
x(70_1022) 0
x(70_1023) 0
x(70_1024) 0
x(70_1025) 0
x(70_1026) 0
x(70_1027) 0
x(71_1028) 0
x(71_1029) 0
x(71_1030) 0
x(71_1031) 0
x(71_1032) 0
x(71_1033) 0
x(71_1034) 0
x(71_1035) 0
x(71_1036) 0
x(71_1037) 0
x(71_1038) 0
x(71_1039) 1
x(71_1040) 0
x(71_1041) 0
x(72_1042) 0
x(72_1043) 0
x(72_1044) 1
x(72_1045) 0
x(72_1046) 0
x(72_1047) 0
x(72_1048) 0
x(72_1049) 0
x(72_1050) 0
x(72_1051) 0
x(72_1052) 0
x(72_1053) 0
x(72_1054) 0
x(72_1055) 0
x(72_1056) 0
x(72_1057) 0
x(72_1058) 0
x(73_1059) 0
x(73_1060) 0
x(73_1061) 0
x(73_1062) 0
x(73_1063) 0
x(73_1064) 0
x(73_1065) 0
x(73_1066) 0
x(73_1067) 0
x(73_1068) 0
x(73_1069) 0
x(73_1070) 0
x(73_1071) 0
x(73_1072) 0
x(73_1073) 0
x(73_1074) 1
x(73_1075) 0
x(74_1076) 0
x(74_1077) 0
x(74_1078) 0
x(74_1079) 0
x(74_1080) 0
x(74_1081) 1
x(74_1082) 0
x(74_1083) 0
x(74_1084) 0
x(74_1085) 0
x(74_1086) 0
x(74_1087) 0
x(74_1088) 0
x(74_1089) 0
x(74_1090) 0
x(75_1091) 0
x(75_1092) 0
x(75_1093) 1
x(75_1094) 0
x(75_1095) 0
x(75_1096) 0
x(75_1097) 0
x(75_1098) 0
x(75_1099) 0
x(75_1100) 0
x(75_1101) 0
x(75_1102) 0
x(75_1103) 0
x(75_1104) 0
x(75_1105) 0
x(75_1106) 0
x(75_1107) 0
x(75_1108) 0
x(76_1109) 0
x(76_1110) 0
x(76_1111) 0
x(76_1112) 0
x(76_1113) 1
x(76_1114) 0
x(76_1115) 0
x(76_1116) 0
x(76_1117) 0
x(76_1118) 0
x(76_1119) 0
x(76_1120) 0
x(77_1121) 0
x(77_1122) 0
x(77_1123) 0
x(77_1124) 0
x(77_1125) 0
x(77_1126) 0
x(77_1127) 0
x(77_1128) 0
x(77_1129) 0
x(77_1130) 1
x(77_1131) 0
x(78_1132) 0
x(78_1133) 0
x(78_1134) 0
x(78_1135) 0
x(78_1136) 0
x(78_1137) 0
x(78_1138) 0
x(78_1139) 1
x(78_1140) 0
x(78_1141) 0
x(79_1142) 0
x(79_1143) 0
x(79_1144) 0
x(79_1145) 0
x(79_1146) 0
x(79_1147) 0
x(79_1148) 0
x(79_1149) 1
x(79_1150) 0
x(79_1151) 0
x(79_1152) 0
x(79_1153) 0
x(79_1154) 0
x(79_1155) 0
x(79_1156) 0
x(79_1157) 0
x(79_1158) 0
x(79_1159) 0
x(80_1160) 0
x(80_1161) 0
x(80_1162) 0
x(80_1163) 0
x(80_1164) 0
x(80_1165) 0
x(80_1166) 0
x(80_1167) 0
x(80_1168) 0
x(80_1169) 0
x(80_1170) 0
x(80_1171) 0
x(80_1172) 0
x(80_1173) 0
x(80_1174) 1
x(80_1175) 0
x(80_1176) 0
x(80_1177) 0
x(81_1178) 0
x(81_1179) 0
x(81_1180) 0
x(81_1181) 0
x(81_1182) 0
x(81_1183) 0
x(81_1184) 1
x(81_1185) 0
x(81_1186) 0
x(81_1187) 0
x(81_1188) 0
x(81_1189) 0
x(81_1190) 0
x(81_1191) 0
x(81_1192) 0
x(81_1193) 0
x(81_1194) 0
x(81_1195) 0
x(82_1196) 0
x(82_1197) 0
x(82_1198) 0
x(82_1199) 0
x(82_1200) 0
x(82_1201) 0
x(82_1202) 0
x(82_1203) 0
x(82_1204) 0
x(82_1205) 0
x(82_1206) 0
x(82_1207) 0
x(82_1208) 0
x(82_1209) 0
x(82_1210) 0
x(82_1211) 1
x(82_1212) 0
x(82_1213) 0
x(83_1214) 0
x(83_1215) 0
x(83_1216) 0
x(83_1217) 0
x(83_1218) 1
x(83_1219) 0
x(83_1220) 0
x(83_1221) 0
x(83_1222) 0
x(83_1223) 0
x(83_1224) 0
x(83_1225) 0
x(83_1226) 0
x(83_1227) 0
x(84_1228) 0
x(84_1229) 0
x(84_1230) 0
x(84_1231) 0
x(84_1232) 0
x(84_1233) 0
x(84_1234) 1
x(84_1235) 0
x(84_1236) 0
x(84_1237) 0
x(84_1238) 0
x(84_1239) 0
x(85_1240) 1
x(85_1241) 0
x(85_1242) 0
x(85_1243) 0
x(85_1244) 0
x(85_1245) 0
x(85_1246) 0
x(85_1247) 0
x(85_1248) 0
x(85_1249) 0
x(85_1250) 0
x(85_1251) 0
x(85_1252) 0
x(85_1253) 0
x(85_1254) 0
x(85_1255) 0
x(85_1256) 0
x(85_1257) 0
x(85_1258) 0
x(86_1259) 0
x(86_1260) 0
x(86_1261) 0
x(86_1262) 0
x(86_1263) 0
x(86_1264) 0
x(86_1265) 1
x(86_1266) 0
x(86_1267) 0
x(86_1268) 0
x(86_1269) 0
x(86_1270) 0
x(86_1271) 0
x(86_1272) 0
x(86_1273) 0
x(86_1274) 0
x(86_1275) 0
x(86_1276) 0
x(87_1277) 0
x(87_1278) 0
x(87_1279) 0
x(87_1280) 0
x(87_1281) 0
x(87_1282) 1
x(87_1283) 0
x(87_1284) 0
x(87_1285) 0
x(87_1286) 0
x(87_1287) 0
x(87_1288) 0
x(87_1289) 0
x(88_1290) 0
x(88_1291) 0
x(88_1292) 0
x(88_1293) 1
x(88_1294) 0
x(88_1295) 0
x(88_1296) 0
x(88_1297) 0
x(88_1298) 0
x(88_1299) 0
x(88_1300) 0
x(88_1301) 0
x(89_1302) 0
x(89_1303) 1
x(89_1304) 0
x(89_1305) 0
x(89_1306) 0
x(89_1307) 0
x(89_1308) 0
x(89_1309) 0
x(89_1310) 0
x(89_1311) 0
x(89_1312) 0
x(89_1313) 0
x(89_1314) 0
x(89_1315) 0
x(90_1316) 0
x(90_1317) 0
x(90_1318) 0
x(90_1319) 0
x(90_1320) 0
x(90_1321) 0
x(90_1322) 0
x(90_1323) 1
x(90_1324) 0
x(90_1325) 0
x(90_1326) 0
x(90_1327) 0
x(90_1328) 0
x(90_1329) 0
x(90_1330) 0
x(90_1331) 0
x(90_1332) 0
x(90_1333) 0
x(90_1334) 0
x(90_1335) 0
x_1_0 419.307181680575
s_1_0 0
z_1_0 0
x_1_1 0
s_1_1 4.1547867209010292e-01
z_1_1 1
x_1_2 0
s_1_2 5.7673768045788165e-01
z_1_2 1
x_1_3 4.1440683511458337e+02
s_1_3 0
z_1_3 0
x_1_4 4.1697722097160295e+02
s_1_4 0
z_1_4 0
x_1_5 4.1812100744619966e+02
s_1_5 0
z_1_5 0
x_1_6 4.1533338824938983e+02
s_1_6 0
z_1_6 0
x_1_7 4.2033498741313815e+02
s_1_7 0
z_1_7 0
x_1_8 4.1468694945424795e+02
s_1_8 0
z_1_8 0
x_1_9 4.1516603389149532e+02
s_1_9 0
z_1_9 0
x_1_10 4.1898851858451962e+02
s_1_10 0
z_1_10 0
x_1_11 4.1547271848563105e+02
s_1_11 0
z_1_11 0
x_1_12 4.1733523412834620e+02
s_1_12 0
z_1_12 0
x_1_13 414.966539156565
s_1_13 0
z_1_13 0
x_1_14 4.1883298553596251e+02
s_1_14 0
z_1_14 0
x_1_15 0
s_1_15 1.1608358510420658e+00
z_1_15 1
x_1_16 4.1985535864252597e+02
s_1_16 0
z_1_16 0
x_1_17 4.1533938341867179e+02
s_1_17 0
z_1_17 0
x_1_18 0
s_1_18 1.0203134225448593e+00
z_1_18 1
x_1_19 0
s_1_19 1.4536283239140175e+00
z_1_19 1
x_1_20 0
s_1_20 5.8338602341245860e-01
z_1_20 1
x_1_21 0
s_1_21 1.6399610244116047e+00
z_1_21 1
x_1_22 0
s_1_22 1.1088685907598119e+00
z_1_22 1
x_1_23 0
s_1_23 1.3140606049564667e+00
z_1_23 1
x_1_24 0
s_1_24 9.7072659154946450e-01
z_1_24 1
x_1_25 4.1824862744286656e+02
s_1_25 0
z_1_25 0
x_1_26 4.1917305725254118e+02
s_1_26 0
z_1_26 0
x_1_27 0
s_1_27 1.4066458513843827e+00
z_1_27 1
x_1_28 0
s_1_28 1.2590102726062469e+00
z_1_28 1
x_1_29 0
s_1_29 9.3477824059664272e-01
z_1_29 1
x_1_30 0
s_1_30 7.9771241499111056e-01
z_1_30 1
x_1_31 4.1695292745414190e+02
s_1_31 0
z_1_31 0
x_1_32 0
s_1_32 1.2632854533148929e+00
z_1_32 1
x_1_33 4.1950586045812815e+02
s_1_33 0
z_1_33 0
x_1_34 0
s_1_34 1.3553325098473579e+00
z_1_34 1
x_1_35 4.2044955666456372e+02
s_1_35 0
z_1_35 0
x_1_36 4.1484518156480044e+02
s_1_36 0
z_1_36 0
x_1_37 0
s_1_37 8.7521731044398621e-01
z_1_37 1
x_1_38 4.1667563989572227e+02
s_1_38 0
z_1_38 0
x_1_39 4.1458693909645081e+02
s_1_39 0
z_1_39 0
x_1_40 420.195587977767
s_1_40 0
z_1_40 0
x_1_41 4.1449555596662685e+02
s_1_41 0
z_1_41 0
x_1_42 4.1656483859010041e+02
s_1_42 0
z_1_42 0
x_1_43 0
s_1_43 1.4284704407618847e+00
z_1_43 1
x_1_44 4.1944199344841763e+02
s_1_44 0
z_1_44 0
x_1_45 4.1876026079338044e+02
s_1_45 0
z_1_45 0
x_1_46 0
s_1_46 1.4073910268489271e+00
z_1_46 1
x_1_47 0
s_1_47 8.7991858446912374e-01
z_1_47 1
x_1_48 0
s_1_48 9.1282338870223612e-01
z_1_48 1
x_1_49 0
s_1_49 1.2309111818758538e+00
z_1_49 1
x_1_50 0
s_1_50 1.3066847041918663e+00
z_1_50 1
x_1_51 4.1847553774970584e+02
s_1_51 0
z_1_51 0
x_1_52 4.1731526090949774e+02
s_1_52 0
z_1_52 0
x_1_53 4.1838361564885417e+02
s_1_53 0
z_1_53 0
x_1_54 4.2000479243649170e+02
s_1_54 0
z_1_54 0
x_1_55 0
s_1_55 1.8369025074061938e+00
z_1_55 1
x_1_56 4.1969004443602171e+02
s_1_56 0
z_1_56 0
x_1_57 0
s_1_57 1.1192342420254136e+00
z_1_57 1
x_1_58 4.1727284801658243e+02
s_1_58 0
z_1_58 0
x_1_59 0
s_1_59 9.4401679810835049e-01
z_1_59 1
x_1_60 0
s_1_60 1.4579556900935131e+00
z_1_60 1
x_1_61 0
s_1_61 9.9825723053072579e-01
z_1_61 1
x_1_62 0
s_1_62 1.0270035688881762e+00
z_1_62 1
x_1_63 4.1888726369943470e+02
s_1_63 0
z_1_63 0
x_1_64 4.2045595256518573e+02
s_1_64 0
z_1_64 0
x_1_65 0
s_1_65 1.0138173768245906e+00
z_1_65 1
x_1_66 4.1704144226573408e+02
s_1_66 0
z_1_66 0
x_1_67 4.1849777708947659e+02
s_1_67 0
z_1_67 0
x_1_68 0
s_1_68 1.2088987528695725e+00
z_1_68 1
x_1_69 4.1952510020602494e+02
s_1_69 0
z_1_69 0
x_1_70 4.1785968763241544e+02
s_1_70 0
z_1_70 0
x_1_71 0
s_1_71 7.4367467576485069e-01
z_1_71 1
x_1_72 0
s_1_72 6.5216554189100862e-01
z_1_72 1
x_1_73 420.170870287242
s_1_73 0
z_1_73 0
x_1_74 4.1657805616408587e+02
s_1_74 0
z_1_74 0
x_1_75 0
s_1_75 9.6113565203268081e-01
z_1_75 1
x_1_76 4.2058900182042271e+02
s_1_76 0
z_1_76 0
x_1_77 0
s_1_77 1.2073524452425772e+00
z_1_77 1
x_1_78 0
s_1_78 0.956741348374635
z_1_78 1
x_1_79 4.2099181609228253e+02
s_1_79 0
z_1_79 0
x_1_80 4.1831134893465787e+02
s_1_80 0
z_1_80 0
x_1_81 0
s_1_81 1.1811328521871474e+00
z_1_81 1
x_1_82 0
s_1_82 1.2811038694344461e+00
z_1_82 1
x_1_83 4.1464250358613208e+02
s_1_83 0
z_1_83 0
x_1_84 0
s_1_84 0.635934163859929
z_1_84 1
x_1_85 4.1766273537091911e+02
s_1_85 0
z_1_85 0
x_1_86 4.1926257299282588e+02
s_1_86 0
z_1_86 0
x_1_87 416.87976491265
s_1_87 0
z_1_87 0
x_1_88 4.1587421003449708e+02
s_1_88 0
z_1_88 0
x_1_89 4.2048014169372618e+02
s_1_89 0
z_1_89 0
x_1_90 4.1893203757330775e+02
s_1_90 0
z_1_90 0
x_1_91 0
s_1_91 8.2896306674228981e-01
z_1_91 1
x_1_92 4.1763017501019931e+02
s_1_92 0
z_1_92 0
x_1_93 416.361770035699
s_1_93 0
z_1_93 0
x_1_94 0
s_1_94 1.8465948030352592e+00
z_1_94 1
x_1_95 0
s_1_95 1.0700440454820637e+00
z_1_95 1
x_1_96 0
s_1_96 1.4122229897766374e+00
z_1_96 1
x_1_97 0
s_1_97 9.4481062069826294e-01
z_1_97 1
x_1_98 4.1496578690968454e+02
s_1_98 0
z_1_98 0
x_1_99 4.1803844216000289e+02
s_1_99 0
z_1_99 0
x_1_100 4.1635114245116711e+02
s_1_100 0
z_1_100 0
x_1_101 0
s_1_101 1.4676890626142267e+00
z_1_101 1
x_1_102 0
s_1_102 0.894217067376303
z_1_102 1
x_1_103 0
s_1_103 8.1203838800138328e-01
z_1_103 1
x_1_104 0
s_1_104 8.2779480708995834e-01
z_1_104 1
x_1_105 0
s_1_105 1.8083986124256626e+00
z_1_105 1
x_1_106 4.1436816177610308e+02
s_1_106 0
z_1_106 0
x_1_107 0
s_1_107 5.0922421652649064e-01
z_1_107 1
x_1_108 0
s_1_108 8.8110671332105994e-01
z_1_108 1
x_1_109 4.1791121525131166e+02
s_1_109 0
z_1_109 0
x_1_110 0
s_1_110 1.2911508990800940e+00
z_1_110 1
x_1_111 4.1571031984989531e+02
s_1_111 0
z_1_111 0
x_1_112 0
s_1_112 1.4050232392619364e+00
z_1_112 1
x_1_113 0
s_1_113 1.1984516906668432e+00
z_1_113 1
x_1_114 4.1518852412700653e+02
s_1_114 0
z_1_114 0
x_1_115 4.2102188340621069e+02
s_1_115 0
z_1_115 0
x_1_116 4.1455159213999286e+02
s_1_116 0
z_1_116 0
x_1_117 4.1685456383973360e+02
s_1_117 0
z_1_117 0
x_1_118 0
s_1_118 0.910016760812141
z_1_118 1
x_1_119 417.149195604492
s_1_119 0
z_1_119 0
x_1_120 0
s_1_120 1.6478227541920205e+00
z_1_120 1
x_1_121 4.1761724603176117e+02
s_1_121 0
z_1_121 0
x_1_122 4.1665903727710247e+02
s_1_122 0
z_1_122 0
x_1_123 4.1764911320665851e+02
s_1_123 0
z_1_123 0
x_1_124 4.1616048495844007e+02
s_1_124 0
z_1_124 0
x_1_125 4.1494641767628491e+02
s_1_125 0
z_1_125 0
x_1_126 4.1743534612096846e+02
s_1_126 0
z_1_126 0
x_1_127 4.1728448081389070e+02
s_1_127 0
z_1_127 0
x_1_128 4.1955931906774640e+02
s_1_128 0
z_1_128 0
x_1_129 0
s_1_129 6.9913274468854070e-01
z_1_129 1
x_1_130 0
s_1_130 1.6213124205823988e+00
z_1_130 1
x_1_131 4.1765277514792979e+02
s_1_131 0
z_1_131 0
x_1_132 4.1218352397531271e+02
s_1_132 0
z_1_132 0
x_1_133 0
s_1_133 1.5947862056782469e+00
z_1_133 1
x_1_134 4.1659639921807684e+02
s_1_134 0
z_1_134 0
x_1_135 0
s_1_135 1.5917737048876006e+00
z_1_135 1
x_1_136 0
s_1_136 1.4118583653835231e+00
z_1_136 1
x_1_137 4.1457587157952366e+02
s_1_137 0
z_1_137 0
x_1_138 0
s_1_138 0.941603791055968
z_1_138 1
x_1_139 0
s_1_139 9.7961848817067221e-01
z_1_139 1
x_1_140 0
s_1_140 1.2938732715681454e+00
z_1_140 1
x_1_141 0
s_1_141 7.7636467244883534e-01
z_1_141 1
x_1_142 4.1538853898551315e+02
s_1_142 0
z_1_142 0
x_1_143 4.1698437850270420e+02
s_1_143 0
z_1_143 0
x_1_144 4.1758811927447096e+02
s_1_144 0
z_1_144 0
x_1_145 0
s_1_145 1.1247045715863351e+00
z_1_145 1
x_1_146 0
s_1_146 9.6686470665736124e-01
z_1_146 1
x_1_147 0
s_1_147 9.3872877146350220e-01
z_1_147 1
x_1_148 0
s_1_148 1.1221443956019357e+00
z_1_148 1
x_1_149 0
s_1_149 0.681378768873401
z_1_149 1
x_1_150 4.1735066095739603e+02
s_1_150 0
z_1_150 0
x_1_151 4.2046437151671853e+02
s_1_151 0
z_1_151 0
x_1_152 4.1838477279338986e+02
s_1_152 0
z_1_152 0
x_1_153 0
s_1_153 1.3697722465149127e+00
z_1_153 1
x_1_154 4.1600736090028659e+02
s_1_154 0
z_1_154 0
x_1_155 0
s_1_155 1.1093483348595328e+00
z_1_155 1
x_1_156 4.1582460100855678e+02
s_1_156 0
z_1_156 0
x_1_157 4.1987724621593952e+02
s_1_157 0
z_1_157 0
x_1_158 0
s_1_158 0.861959308036603
z_1_158 1
x_1_159 0
s_1_159 1.1912811421789229e+00
z_1_159 1
x_2_0 2.4201248014973445e+05
