243/surrogate_problem/log/surrogate2_27.log

Gurobi 10.0.2 (linux64) logging started Thu Sep  7 10:02:52 2023

Set parameter LogFile to value "../surrogate_problem/log/surrogate2_27.log"
Set parameter Threads to value 30
Gurobi Optimizer version 10.0.2 build v10.0.2rc0 (linux64)

CPU model: Intel(R) Xeon(R) Platinum 8280 CPU @ 2.70GHz, instruction set [SSE2|AVX|AVX2|AVX512]
Thread count: 112 physical cores, 112 logical processors, using up to 30 threads

Optimize a model with 572 rows, 1817 columns and 216217 nonzeros
Model fingerprint: 0x52edebbf
Variable types: 321 continuous, 1496 integer (1496 binary)
Coefficient statistics:
  Matrix range     [2e-07, 1e+05]
  Objective range  [2e-01, 2e+01]
  Bounds range     [1e+00, 1e+00]
  RHS range        [4e-02, 1e+05]
Found heuristic solution: objective 295526.36116
Presolve removed 259 rows and 259 columns
Presolve time: 0.17s
Presolved: 313 rows, 1558 columns, 95929 nonzeros
Variable types: 148 continuous, 1410 integer (1410 binary)

Root relaxation: objective 2.429961e+05, 171 iterations, 0.01 seconds (0.01 work units)

    Nodes    |    Current Node    |     Objective Bounds      |     Work
 Expl Unexpl |  Obj  Depth IntInf | Incumbent    BestBd   Gap | It/Node Time

     0     0 242996.139    0    6 295526.361 242996.139  17.8%     -    0s
H    0     0                    242996.20215 242996.139  0.00%     -    0s
     0     0 242996.139    0    6 242996.202 242996.139  0.00%     -    0s

Explored 1 nodes (171 simplex iterations) in 0.26 seconds (0.21 work units)
Thread count was 30 (of 112 available processors)

Solution count 2: 242996 295526 

Optimal solution found (tolerance 1.00e-04)
Best objective 2.429962021497e+05, best bound 2.429962021497e+05, gap 0.0000%

Gurobi 10.0.2 (linux64) logging started Fri Sep  8 15:18:18 2023

Set parameter LogFile to value "../surrogate_problem/log/surrogate2_27.log"
Gurobi Optimizer version 10.0.2 build v10.0.2rc0 (linux64)

CPU model: Intel(R) Xeon(R) Platinum 8280 CPU @ 2.70GHz, instruction set [SSE2|AVX|AVX2|AVX512]
Thread count: 112 physical cores, 112 logical processors, using up to 30 threads

Optimize a model with 572 rows, 1817 columns and 216217 nonzeros
Model fingerprint: 0x52edebbf
Variable types: 321 continuous, 1496 integer (1496 binary)
Coefficient statistics:
  Matrix range     [2e-07, 1e+05]
  Objective range  [2e-01, 2e+01]
  Bounds range     [1e+00, 1e+00]
  RHS range        [4e-02, 1e+05]
Found heuristic solution: objective 295526.36116
Presolve removed 259 rows and 259 columns
Presolve time: 0.17s
Presolved: 313 rows, 1558 columns, 95929 nonzeros
Variable types: 148 continuous, 1410 integer (1410 binary)

Root relaxation: objective 2.429961e+05, 171 iterations, 0.01 seconds (0.01 work units)

    Nodes    |    Current Node    |     Objective Bounds      |     Work
 Expl Unexpl |  Obj  Depth IntInf | Incumbent    BestBd   Gap | It/Node Time

     0     0 242996.139    0    6 295526.361 242996.139  17.8%     -    0s
H    0     0                    242996.20215 242996.139  0.00%     -    0s
     0     0 242996.139    0    6 242996.202 242996.139  0.00%     -    0s

Explored 1 nodes (171 simplex iterations) in 0.28 seconds (0.21 work units)
Thread count was 30 (of 112 available processors)

Solution count 2: 242996 295526 

Optimal solution found (tolerance 1.00e-04)
Best objective 2.429962021497e+05, best bound 2.429962021497e+05, gap 0.0000%
